\ This file has been generated by DOcplex
\ ENCODING=ISO-8859-1
\Problem name: random_problem.lp

Minimize
 obj: - 422 x0 - 211 x1 - 458 x2 - 229 x3 - 402 x4 - 201 x5 + 206 x6 + 103 x7
      + 90 x8 + 45 x9 - 78 x10 - 39 x11 - 114 x12 - 57 x13 - 312 x14 - 156 x15
      + 230 x16 + 115 x17 + 252 x18 + 126 x19 + 56 x20 + 28 x21 - 86 x22
      - 43 x23 + [ 576 x0^2 + 576 x0*x1 - 64 x0*x2 - 32 x0*x3 + 288 x0*x4
      + 144 x0*x5 + 1008 x0*x6 + 504 x0*x7 + 352 x0*x8 + 176 x0*x9 + 768 x0*x10
      + 384 x0*x11 + 304 x0*x12 + 152 x0*x13 + 32 x0*x14 + 16 x0*x15
      + 1072 x0*x16 + 536 x0*x17 + 592 x0*x18 + 296 x0*x19 + 384 x0*x20
      + 192 x0*x21 + 704 x0*x22 + 352 x0*x23 + 144 x1^2 - 32 x1*x2 - 16 x1*x3
      + 144 x1*x4 + 72 x1*x5 + 504 x1*x6 + 252 x1*x7 + 176 x1*x8 + 88 x1*x9
      + 384 x1*x10 + 192 x1*x11 + 152 x1*x12 + 76 x1*x13 + 16 x1*x14 + 8 x1*x15
      + 536 x1*x16 + 268 x1*x17 + 296 x1*x18 + 148 x1*x19 + 192 x1*x20
      + 96 x1*x21 + 352 x1*x22 + 176 x1*x23 + 816 x2^2 + 816 x2*x3 + 384 x2*x4
      + 192 x2*x5 + 240 x2*x6 + 120 x2*x7 + 144 x2*x8 + 72 x2*x9 + 464 x2*x10
      + 232 x2*x11 - 304 x2*x12 - 152 x2*x13 - 160 x2*x14 - 80 x2*x15
      + 464 x2*x16 + 232 x2*x17 - 80 x2*x18 - 40 x2*x19 + 336 x2*x20
      + 168 x2*x21 + 48 x2*x22 + 24 x2*x23 + 204 x3^2 + 192 x3*x4 + 96 x3*x5
      + 120 x3*x6 + 60 x3*x7 + 72 x3*x8 + 36 x3*x9 + 232 x3*x10 + 116 x3*x11
      - 152 x3*x12 - 76 x3*x13 - 80 x3*x14 - 40 x3*x15 + 232 x3*x16 + 116 x3*x17
      - 40 x3*x18 - 20 x3*x19 + 168 x3*x20 + 84 x3*x21 + 24 x3*x22 + 12 x3*x23
      + 424 x4^2 + 424 x4*x5 + 816 x4*x6 + 408 x4*x7 + 576 x4*x8 + 288 x4*x9
      + 496 x4*x10 + 248 x4*x11 + 32 x4*x12 + 16 x4*x13 - 96 x4*x14 - 48 x4*x15
      + 352 x4*x16 + 176 x4*x17 + 304 x4*x18 + 152 x4*x19 + 608 x4*x20
      + 304 x4*x21 + 320 x4*x22 + 160 x4*x23 + 106 x5^2 + 408 x5*x6 + 204 x5*x7
      + 288 x5*x8 + 144 x5*x9 + 248 x5*x10 + 124 x5*x11 + 16 x5*x12 + 8 x5*x13
      - 48 x5*x14 - 24 x5*x15 + 176 x5*x16 + 88 x5*x17 + 152 x5*x18 + 76 x5*x19
      + 304 x5*x20 + 152 x5*x21 + 160 x5*x22 + 80 x5*x23 + 984 x6^2 + 984 x6*x7
      + 832 x6*x8 + 416 x6*x9 + 864 x6*x10 + 432 x6*x11 + 160 x6*x12 + 80 x6*x13
      + 208 x6*x14 + 104 x6*x15 + 1168 x6*x16 + 584 x6*x17 + 736 x6*x18
      + 368 x6*x19 + 1040 x6*x20 + 520 x6*x21 + 944 x6*x22 + 472 x6*x23
      + 246 x7^2 + 416 x7*x8 + 208 x7*x9 + 432 x7*x10 + 216 x7*x11 + 80 x7*x12
      + 40 x7*x13 + 104 x7*x14 + 52 x7*x15 + 584 x7*x16 + 292 x7*x17
      + 368 x7*x18 + 184 x7*x19 + 520 x7*x20 + 260 x7*x21 + 472 x7*x22
      + 236 x7*x23 + 664 x8^2 + 664 x8*x9 - 96 x8*x10 - 48 x8*x11 + 192 x8*x12
      + 96 x8*x13 + 32 x8*x14 + 16 x8*x15 + 416 x8*x16 + 208 x8*x17 + 448 x8*x18
      + 224 x8*x19 + 288 x8*x20 + 144 x8*x21 + 272 x8*x22 + 136 x8*x23
      + 166 x9^2 - 48 x9*x10 - 24 x9*x11 + 96 x9*x12 + 48 x9*x13 + 16 x9*x14
      + 8 x9*x15 + 208 x9*x16 + 104 x9*x17 + 224 x9*x18 + 112 x9*x19
      + 144 x9*x20 + 72 x9*x21 + 136 x9*x22 + 68 x9*x23 + 976 x10^2
      + 976 x10*x11 + 336 x10*x12 + 168 x10*x13 - 144 x10*x14 - 72 x10*x15
      + 880 x10*x16 + 440 x10*x17 + 160 x10*x18 + 80 x10*x19 + 624 x10*x20
      + 312 x10*x21 + 720 x10*x22 + 360 x10*x23 + 244 x11^2 + 168 x11*x12
      + 84 x11*x13 - 72 x11*x14 - 36 x11*x15 + 440 x11*x16 + 220 x11*x17
      + 80 x11*x18 + 40 x11*x19 + 312 x11*x20 + 156 x11*x21 + 360 x11*x22
      + 180 x11*x23 + 328 x12^2 + 328 x12*x13 - 240 x12*x14 - 120 x12*x15
      + 112 x12*x16 + 56 x12*x17 + 400 x12*x18 + 200 x12*x19 - 160 x12*x20
      - 80 x12*x21 + 176 x12*x22 + 88 x12*x23 + 82 x13^2 - 120 x13*x14
      - 60 x13*x15 + 56 x13*x16 + 28 x13*x17 + 200 x13*x18 + 100 x13*x19
      - 80 x13*x20 - 40 x13*x21 + 88 x13*x22 + 44 x13*x23 + 1168 x14^2
      + 1168 x14*x15 - 112 x14*x16 - 56 x14*x17 - 544 x14*x18 - 272 x14*x19
      + 240 x14*x20 + 120 x14*x21 + 416 x14*x22 + 208 x14*x23 + 292 x15^2
      - 56 x15*x16 - 28 x15*x17 - 272 x15*x18 - 136 x15*x19 + 120 x15*x20
      + 60 x15*x21 + 208 x15*x22 + 104 x15*x23 + 1000 x16^2 + 1000 x16*x17
      + 416 x16*x18 + 208 x16*x19 + 544 x16*x20 + 272 x16*x21 + 544 x16*x22
      + 272 x16*x23 + 250 x17^2 + 208 x17*x18 + 104 x17*x19 + 272 x17*x20
      + 136 x17*x21 + 272 x17*x22 + 136 x17*x23 + 536 x18^2 + 536 x18*x19
      + 256 x18*x20 + 128 x18*x21 + 400 x18*x22 + 200 x18*x23 + 134 x19^2
      + 128 x19*x20 + 64 x19*x21 + 200 x19*x22 + 100 x19*x23 + 536 x20^2
      + 536 x20*x21 + 480 x20*x22 + 240 x20*x23 + 134 x21^2 + 240 x21*x22
      + 120 x21*x23 + 496 x22^2 + 496 x22*x23 + 124 x23^2 ]/2
Subject To
 c0: 2 x0 + x1 + 2 x2 + x3 + 2 x4 + x5 + 2 x6 + x7 + 2 x8 + x9 + 2 x10 + x11
     + 2 x12 + x13 + 2 x14 + x15 + 2 x16 + x17 + 2 x18 + x19 + 2 x20 + x21
     + 2 x22 + x23 = 3

Bounds
 0 <= x0 <= 1
 0 <= x1 <= 1
 0 <= x2 <= 1
 0 <= x3 <= 1
 0 <= x4 <= 1
 0 <= x5 <= 1
 0 <= x6 <= 1
 0 <= x7 <= 1
 0 <= x8 <= 1
 0 <= x9 <= 1
 0 <= x10 <= 1
 0 <= x11 <= 1
 0 <= x12 <= 1
 0 <= x13 <= 1
 0 <= x14 <= 1
 0 <= x15 <= 1
 0 <= x16 <= 1
 0 <= x17 <= 1
 0 <= x18 <= 1
 0 <= x19 <= 1
 0 <= x20 <= 1
 0 <= x21 <= 1
 0 <= x22 <= 1
 0 <= x23 <= 1

Binaries
 x0 x1 x2 x3 x4 x5 x6 x7 x8 x9 x10 x11 x12 x13 x14 x15 x16 x17 x18 x19 x20 x21
 x22 x23
End
